(set-info :source |printed by MathSAT|)
(declare-fun call_voiture.meter () Bool)
(declare-fun call_voiture.speed () Int)
(declare-fun second () Bool)
(declare-fun call_voiture.ite2 () Int)
(declare-fun call_voiture.flby2 () Bool)
(declare-fun env () Bool)
(declare-fun time () Int)
(declare-fun dist () Int)
(declare-fun call_voiture.dist () Int)
(declare-fun speed () Int)
(declare-fun call_voiture.flby4 () Int)
(declare-fun bump () Bool)
(declare-fun call_voiture.ite3 () Int)
(declare-fun param_s () Bool)
(declare-fun call_Sofar.Sofar () Bool)
(declare-fun meter () Bool)
(declare-fun call_voiture.move () Bool)
(declare-fun call_voiture.stop () Bool)
(declare-fun call_excludes2.excludes () Bool)
(declare-fun flby () Bool)
(declare-fun call_voiture.flby3 () Bool)
(declare-fun _OK_ () Bool)
(declare-fun stop () Bool)
(declare-fun call_voiture.flby () Bool)
(declare-fun call_voiture.second () Bool)
(declare-fun call_Sofar.flby () Bool)
(declare-fun call_voiture.flby6 () Int)
(declare-fun call_voiture.bump () Bool)
(declare-fun call_voiture.flby5 () Int)
(declare-fun toofast () Bool)
(declare-fun call_voiture.toofast () Bool)
(declare-fun param_m () Bool)
(declare-fun call_voiture.time () Int)
(declare-fun move () Bool)
(define-fun .def_366 () Bool (= call_Sofar.flby call_Sofar.Sofar))
(define-fun .def_362 () Bool (and param_s param_m))
(define-fun .def_363 () Bool (not .def_362))
(define-fun .def_364 () Bool (= call_excludes2.excludes .def_363))
(define-fun .def_358 () Bool (= call_voiture.flby call_voiture.meter))
(define-fun .def_356 () Bool (= call_voiture.flby2 call_voiture.second))
(define-fun .def_353 () Bool (= call_voiture.flby3 call_voiture.move))
(define-fun .def_350 () Bool (= call_voiture.ite3 0))
(define-fun .def_346 () Bool (not call_voiture.move))
(define-fun .def_347 () Bool (or call_voiture.second .def_346))
(define-fun .def_349 () Bool (not .def_347))
(define-fun .def_351 () Bool (or .def_349 .def_350))
(define-fun .def_345 () Bool (= call_voiture.ite2 call_voiture.ite3))
(define-fun .def_348 () Bool (or .def_345 .def_347))
(define-fun .def_352 () Bool (and .def_348 .def_351))
(define-fun .def_354 () Bool (and .def_352 .def_353))
(define-fun .def_341 () Bool (= call_voiture.flby6 call_voiture.time))
(define-fun .def_339 () Bool (= call_voiture.flby5 call_voiture.speed))
(define-fun .def_337 () Bool (= call_voiture.flby4 call_voiture.dist))
(define-fun .def_334 () Bool (= call_voiture.dist 10))
(define-fun .def_335 () Bool (= call_voiture.bump .def_334))
(define-fun .def_331 () Bool (<= 4 call_voiture.time))
(define-fun .def_332 () Bool (= call_voiture.stop .def_331))
(define-fun .def_328 () Bool (<= 3 call_voiture.speed))
(define-fun .def_329 () Bool (= call_voiture.toofast .def_328))
(define-fun .def_326 () Bool (= env call_Sofar.Sofar))
(define-fun .def_322 () Bool (= meter call_voiture.meter))
(define-fun .def_318 () Bool (= second call_voiture.second))
(define-fun .def_314 () Bool (= move call_voiture.move))
(define-fun .def_310 () Bool (= time call_voiture.time))
(define-fun .def_306 () Bool (= speed call_voiture.speed))
(define-fun .def_302 () Bool (= dist call_voiture.dist))
(define-fun .def_298 () Bool (= bump call_voiture.bump))
(define-fun .def_294 () Bool (= stop call_voiture.stop))
(define-fun .def_290 () Bool (= toofast call_voiture.toofast))
(define-fun .def_287 () Bool (= flby _OK_))
(define-fun .def_291 () Bool (and .def_287 .def_290))
(define-fun .def_295 () Bool (and .def_291 .def_294))
(define-fun .def_299 () Bool (and .def_295 .def_298))
(define-fun .def_303 () Bool (and .def_299 .def_302))
(define-fun .def_307 () Bool (and .def_303 .def_306))
(define-fun .def_311 () Bool (and .def_307 .def_310))
(define-fun .def_315 () Bool (and .def_311 .def_314))
(define-fun .def_319 () Bool (and .def_315 .def_318))
(define-fun .def_323 () Bool (and .def_319 .def_322))
(define-fun .def_327 () Bool (and .def_323 .def_326))
(define-fun .def_330 () Bool (and .def_327 .def_329))
(define-fun .def_333 () Bool (and .def_330 .def_332))
(define-fun .def_336 () Bool (and .def_333 .def_335))
(define-fun .def_338 () Bool (and .def_336 .def_337))
(define-fun .def_340 () Bool (and .def_338 .def_339))
(define-fun .def_342 () Bool (and .def_340 .def_341))
(define-fun .def_355 () Bool (and .def_342 .def_354))
(define-fun .def_357 () Bool (and .def_355 .def_356))
(define-fun .def_359 () Bool (and .def_357 .def_358))
(define-fun .def_365 () Bool (and .def_359 .def_364))
(define-fun .def_367 () Bool (and .def_365 .def_366))
(define-fun .def_284 () Bool (= call_excludes2.excludes call_Sofar.flby))
(define-fun .def_280 () Bool (= call_voiture.flby6 0))
(define-fun .def_277 () Bool (= call_voiture.flby5 0))
(define-fun .def_274 () Bool (= call_voiture.flby4 0))
(define-fun .def_269 () Bool (not call_voiture.flby2))
(define-fun .def_265 () Bool (not call_voiture.flby))
(define-fun .def_267 () Bool (and .def_265 flby))
(define-fun .def_270 () Bool (and .def_267 .def_269))
(define-fun .def_272 () Bool (and .def_270 call_voiture.flby3))
(define-fun .def_275 () Bool (and .def_272 .def_274))
(define-fun .def_278 () Bool (and .def_275 .def_277))
(define-fun .def_281 () Bool (and .def_278 .def_280))
(define-fun .def_285 () Bool (and .def_281 .def_284))
(define-fun .def_368 () Bool (and .def_285 .def_367))
(assert .def_368)
